
Gurobi 6.0.5 (linux64) logging started Mon Oct 23 09:33:54 2017


Gurobi 6.0.5 (linux64) logging started Mon Oct 23 09:33:58 2017


Gurobi 6.0.5 (linux64) logging started Mon Oct 23 09:34:02 2017


Gurobi 6.0.5 (linux64) logging started Mon Oct 23 09:34:49 2017


Gurobi 6.0.5 (linux64) logging started Mon Oct 23 09:34:53 2017


Gurobi 6.0.5 (linux64) logging started Mon Oct 23 09:34:57 2017

